CPXPARAM_TimeLimit                               7200
CPXPARAM_Read_DataCheck                          1
CPXPARAM_Output_IntSolFilePrefix                 "solucoes/t_sol_ini_ID000M003J004_ZintTrue_minla_fav_ub1/sol"
Tried aggregator 1 time.
MIP Presolve eliminated 33 rows and 0 columns.
MIP Presolve modified 36 coefficients.
Reduced MIP has 107 rows, 31 columns, and 298 nonzeros.
Reduced MIP has 18 binaries, 0 generals, 0 SOSs, and 0 indicators.
Presolve time = 0.00 sec. (0.21 ticks)
Found incumbent of value 56.000000 after 0.00 sec. (0.34 ticks)
Probing fixed 0 vars, tightened 1 bounds.
Probing time = 0.00 sec. (0.02 ticks)
Tried aggregator 1 time.
Reduced MIP has 107 rows, 31 columns, and 298 nonzeros.
Reduced MIP has 18 binaries, 0 generals, 0 SOSs, and 0 indicators.
Presolve time = 0.00 sec. (0.14 ticks)
Probing time = 0.00 sec. (0.02 ticks)
MIP emphasis: balance optimality and feasibility.
MIP search method: dynamic search.
Parallel mode: deterministic, using up to 8 threads.
Root relaxation solution time = 0.00 sec. (0.17 ticks)

        Nodes                                         Cuts/
   Node  Left     Objective  IInf  Best Integer    Best Bound    ItCnt     Gap

*     0+    0                           56.0000       29.0000            48.21%
New incumbent written to file 'solucoes/t_sol_ini_ID000M003J004_ZintTrue_minla_fav_ub1/sol-00001.sol'.
*     0+    0                           51.0000       29.0000            43.14%
New incumbent written to file 'solucoes/t_sol_ini_ID000M003J004_ZintTrue_minla_fav_ub1/sol-00002.sol'.
      0     0       29.0000     6       51.0000       29.0000       30   43.14%
*     0+    0                           31.0000       29.0000             6.45%
New incumbent written to file 'solucoes/t_sol_ini_ID000M003J004_ZintTrue_minla_fav_ub1/sol-00003.sol'.
*     0+    0                           29.0000       29.0000             0.00%
New incumbent written to file 'solucoes/t_sol_ini_ID000M003J004_ZintTrue_minla_fav_ub1/sol-00004.sol'.
      0     0        cutoff             29.0000       29.0000       34    0.00%
Elapsed time = 0.01 sec. (1.23 ticks, tree = 0.01 MB, solutions = 4)

Root node processing (before b&c):
  Real time             =    0.01 sec. (1.23 ticks)
Parallel b&c, 8 threads:
  Real time             =    0.00 sec. (0.00 ticks)
  Sync time (average)   =    0.00 sec.
  Wait time (average)   =    0.00 sec.
                          ------------
Total (root+branch&cut) =    0.01 sec. (1.23 ticks)
